c 1 Pizza
c 2 Topping
c 3 Salami
c 4 Ham
c 5 Mozzarella
c 6 Size
c 7 Normal
c 8 Big
c 9 Dough
c 10 Neapolitan
c 11 Sicilian
c 12 CheesyCrust
p cnf 12 21
1 0
1 -2 0
1 -6 0
-9 1 0
-12 1 0
-1 2 0
-1 6 0
9 -1 0
-3 2 0
-4 2 0
-5 2 0
4 5 3 -2 0
-7 6 0
-8 6 0
8 7 -6 0
-8 -7 0
9 -10 0
9 -11 0
-9 10 11 0
-10 -11 0
8 -12 0
